# 1391
param n := 25;
param s := 1;
set E :=  (0,5) (0,20) (1,17) (2,16) (3,7) (3,8) (3,9) (3,16) (4,10) (5,10) (5,15) (5,24) (6,10) (6,17) (6,21) (8,14) (9,24) (10,19) (11,21) (12,20) (12,23) (13,21) (14,18) (14,19) (15,19) (15,23) (16,17) (18,24) (19,22);
